Route #1: 4 45 29 5 48 30
Route #2: 23 56 41 64 42 43 1
Route #3: 33 63 16 3 44 32
Route #4: 26 58 12 40 17 51
Route #5: 6 62 22 61 28 2
Route #6: 21 47 36 60 20 37 15 57
Route #7: 49 24 18 50 55 25 9
Route #8: 39 31 10 38 11
Route #9: 7 53 59 14 35 46
Route #10: 8 19 54 13 27 52 34
Cost 826